c Standarized MaxSat Instance
c{
c "sha1sum": "296a5a179944f42135a1a130fc86db0e510c4774",
c "nvars": 264,
c "ncls": 864,
c "total_lits": 2174,
c "nhards": 816,
c "nhard_nlits": 2126,
c "nhard_len_stats":
c    { "min": 1,
c      "max": 7,
c      "ave": 2.6054,
c      "stddev": 1.2981 },
c "nsofts": 48,
c "nsoft_nlits": 48,
c "nsoft_len_stats":
c    { "min": 1,
c      "max": 1,
c      "ave": 1.0000,
c      "stddev": 0.0000 },
c "nsoft_wts": 1,
c "soft_wt_stats":
c    { "min": 1,
c      "max": 1,
c      "ave": 1.0000,
c      "stddev": 0.0000 }
c}
c------------------------------------------------------------
1 -15 0
1 -13 0
1 -18 0
1 -16 0
1 -21 0
1 -19 0
1 -24 0
1 -22 0
1 -27 0
1 -25 0
1 -30 0
1 -28 0
1 -33 0
1 -31 0
1 -36 0
1 -34 0
1 -39 0
1 -37 0
1 -42 0
1 -40 0
1 -45 0
1 -43 0
1 -48 0
1 -46 0
1 -147 0
1 -145 0
1 -150 0
1 -148 0
1 -153 0
1 -151 0
1 -156 0
1 -154 0
1 -159 0
1 -157 0
1 -162 0
1 -160 0
1 -165 0
1 -163 0
1 -168 0
1 -166 0
1 -171 0
1 -169 0
1 -174 0
1 -172 0
1 -177 0
1 -175 0
1 -180 0
1 -178 0
h -1 -2 -3 -4 -5 -6 0
h -7 -8 -9 -10 -11 -12 0
h 13 1 -14 0
h -13 -1 0
h -13 14 0
h 15 1 14 0
h -15 -1 0
h -15 -14 0
h 16 2 -17 0
h -16 -2 0
h -16 17 0
h 18 2 17 0
h -18 -2 0
h -18 -17 0
h 19 3 -20 0
h -19 -3 0
h -19 20 0
h 21 3 20 0
h -21 -3 0
h -21 -20 0
h 22 4 -23 0
h -22 -4 0
h -22 23 0
h 24 4 23 0
h -24 -4 0
h -24 -23 0
h 25 5 -26 0
h -25 -5 0
h -25 26 0
h 27 5 26 0
h -27 -5 0
h -27 -26 0
h 28 6 -29 0
h -28 -6 0
h -28 29 0
h 30 6 29 0
h -30 -6 0
h -30 -29 0
h 31 7 -32 0
h -31 -7 0
h -31 32 0
h 33 7 32 0
h -33 -7 0
h -33 -32 0
h 34 8 -35 0
h -34 -8 0
h -34 35 0
h 36 8 35 0
h -36 -8 0
h -36 -35 0
h 37 9 -38 0
h -37 -9 0
h -37 38 0
h 39 9 38 0
h -39 -9 0
h -39 -38 0
h 40 10 -41 0
h -40 -10 0
h -40 41 0
h 42 10 41 0
h -42 -10 0
h -42 -41 0
h 43 11 -44 0
h -43 -11 0
h -43 44 0
h 45 11 44 0
h -45 -11 0
h -45 -44 0
h 46 12 -47 0
h -46 -12 0
h -46 47 0
h 48 12 47 0
h -48 -12 0
h -48 -47 0
h 13 16 19 24 27 28 0
h 15 16 19 22 25 30 0
h 13 16 21 22 27 28 0
h 13 16 21 22 25 28 0
h 13 16 21 22 25 30 0
h 15 16 19 22 25 28 0
h 15 16 19 22 27 28 0
h 31 34 37 42 45 46 0
h 33 34 37 40 43 48 0
h 31 34 39 40 45 46 0
h 31 34 39 40 43 46 0
h 31 34 39 40 43 48 0
h 33 34 37 40 43 46 0
h 33 34 37 40 45 46 0
h 49 13 18 19 22 27 28 0
h -49 -13 0
h -49 -18 0
h -49 -19 0
h -49 -22 0
h -49 -27 0
h -49 -28 0
h 50 13 18 19 22 27 30 0
h -50 -13 0
h -50 -18 0
h -50 -19 0
h -50 -22 0
h -50 -27 0
h -50 -30 0
h 51 13 18 19 22 25 30 0
h -51 -13 0
h -51 -18 0
h -51 -19 0
h -51 -22 0
h -51 -25 0
h -51 -30 0
h 52 13 18 19 22 25 28 0
h -52 -13 0
h -52 -18 0
h -52 -19 0
h -52 -22 0
h -52 -25 0
h -52 -28 0
h 53 13 16 19 24 27 30 0
h -53 -13 0
h -53 -16 0
h -53 -19 0
h -53 -24 0
h -53 -27 0
h -53 -30 0
h 54 15 16 19 22 27 30 0
h -54 -15 0
h -54 -16 0
h -54 -19 0
h -54 -22 0
h -54 -27 0
h -54 -30 0
h 55 13 16 21 22 27 30 0
h -55 -13 0
h -55 -16 0
h -55 -21 0
h -55 -22 0
h -55 -27 0
h -55 -30 0
h 56 31 36 37 40 45 46 0
h -56 -31 0
h -56 -36 0
h -56 -37 0
h -56 -40 0
h -56 -45 0
h -56 -46 0
h 57 31 36 37 40 45 48 0
h -57 -31 0
h -57 -36 0
h -57 -37 0
h -57 -40 0
h -57 -45 0
h -57 -48 0
h 58 31 36 37 40 43 48 0
h -58 -31 0
h -58 -36 0
h -58 -37 0
h -58 -40 0
h -58 -43 0
h -58 -48 0
h 59 31 36 37 40 43 46 0
h -59 -31 0
h -59 -36 0
h -59 -37 0
h -59 -40 0
h -59 -43 0
h -59 -46 0
h 60 31 34 37 42 45 48 0
h -60 -31 0
h -60 -34 0
h -60 -37 0
h -60 -42 0
h -60 -45 0
h -60 -48 0
h 61 33 34 37 40 45 48 0
h -61 -33 0
h -61 -34 0
h -61 -37 0
h -61 -40 0
h -61 -45 0
h -61 -48 0
h 62 31 34 39 40 45 48 0
h -62 -31 0
h -62 -34 0
h -62 -39 0
h -62 -40 0
h -62 -45 0
h -62 -48 0
h 63 0
h -64 0
h 65 0
h -67 1 0
h -67 -7 0
h 67 -1 7 0
h -68 -1 0
h -68 7 0
h 68 1 -7 0
h -69 15 0
h -69 31 0
h 69 -15 -31 0
h -70 13 0
h -70 33 0
h 70 -13 -33 0
h 66 -63 67 68 69 70 0
h 63 -66 0
h -67 -66 0
h -68 -66 0
h -69 -66 0
h -70 -66 0
h -72 63 0
h -72 -1 0
h -72 7 0
h 72 -63 1 -7 0
h -73 63 0
h -73 15 0
h -73 31 0
h 73 -63 -15 -31 0
h -71 64 72 73 0
h -64 71 0
h -72 71 0
h -73 71 0
h -75 2 0
h -75 -8 0
h 75 -2 8 0
h -76 -2 0
h -76 8 0
h 76 2 -8 0
h -77 18 0
h -77 34 0
h 77 -18 -34 0
h -78 16 0
h -78 36 0
h 78 -16 -36 0
h 74 -66 75 76 77 78 0
h 66 -74 0
h -75 -74 0
h -76 -74 0
h -77 -74 0
h -78 -74 0
h -80 66 0
h -80 -2 0
h -80 8 0
h 80 -66 2 -8 0
h -81 66 0
h -81 18 0
h -81 34 0
h 81 -66 -18 -34 0
h -79 71 80 81 0
h -71 79 0
h -80 79 0
h -81 79 0
h -83 3 0
h -83 -9 0
h 83 -3 9 0
h -84 -3 0
h -84 9 0
h 84 3 -9 0
h -85 21 0
h -85 37 0
h 85 -21 -37 0
h -86 19 0
h -86 39 0
h 86 -19 -39 0
h 82 -74 83 84 85 86 0
h 74 -82 0
h -83 -82 0
h -84 -82 0
h -85 -82 0
h -86 -82 0
h -88 74 0
h -88 -3 0
h -88 9 0
h 88 -74 3 -9 0
h -89 74 0
h -89 21 0
h -89 37 0
h 89 -74 -21 -37 0
h -87 79 88 89 0
h -79 87 0
h -88 87 0
h -89 87 0
h -91 4 0
h -91 -10 0
h 91 -4 10 0
h -92 -4 0
h -92 10 0
h 92 4 -10 0
h -93 24 0
h -93 40 0
h 93 -24 -40 0
h -94 22 0
h -94 42 0
h 94 -22 -42 0
h 90 -82 91 92 93 94 0
h 82 -90 0
h -91 -90 0
h -92 -90 0
h -93 -90 0
h -94 -90 0
h -96 82 0
h -96 -4 0
h -96 10 0
h 96 -82 4 -10 0
h -97 82 0
h -97 24 0
h -97 40 0
h 97 -82 -24 -40 0
h -95 87 96 97 0
h -87 95 0
h -96 95 0
h -97 95 0
h -99 5 0
h -99 -11 0
h 99 -5 11 0
h -100 -5 0
h -100 11 0
h 100 5 -11 0
h -101 27 0
h -101 43 0
h 101 -27 -43 0
h -102 25 0
h -102 45 0
h 102 -25 -45 0
h 98 -90 99 100 101 102 0
h 90 -98 0
h -99 -98 0
h -100 -98 0
h -101 -98 0
h -102 -98 0
h -104 90 0
h -104 -5 0
h -104 11 0
h 104 -90 5 -11 0
h -105 90 0
h -105 27 0
h -105 43 0
h 105 -90 -27 -43 0
h -103 95 104 105 0
h -95 103 0
h -104 103 0
h -105 103 0
h -107 6 0
h -107 -12 0
h 107 -6 12 0
h -108 -6 0
h -108 12 0
h 108 6 -12 0
h -109 30 0
h -109 46 0
h 109 -30 -46 0
h -110 28 0
h -110 48 0
h 110 -28 -48 0
h 106 -98 107 108 109 110 0
h 98 -106 0
h -107 -106 0
h -108 -106 0
h -109 -106 0
h -110 -106 0
h -111 98 0
h -111 -6 0
h -111 12 0
h 111 -98 6 -12 0
h -112 98 0
h -112 30 0
h -112 46 0
h 112 -98 -30 -46 0
h -65 103 111 112 0
h -103 65 0
h -111 65 0
h -112 65 0
h 49 56 0
h 50 57 0
h 51 58 0
h 52 59 0
h 53 60 0
h 54 61 0
h 55 62 0
h -13 113 0
h -16 113 0
h -13 -16 114 0
h -19 115 0
h -22 115 0
h -19 -22 116 0
h -113 117 0
h -115 117 0
h -113 -115 118 0
h -114 119 0
h -116 119 0
h -114 -116 120 0
h -118 121 0
h -119 121 0
h -118 -119 122 0
h -121 0
h -31 123 0
h -34 123 0
h -31 -34 124 0
h -37 125 0
h -40 125 0
h -37 -40 126 0
h -123 127 0
h -125 127 0
h -123 -125 128 0
h -124 129 0
h -126 129 0
h -124 -126 130 0
h -128 131 0
h -129 131 0
h -128 -129 132 0
h -131 0
h -133 -134 -135 -136 -137 -138 0
h -139 -140 -141 -142 -143 -144 0
h 145 133 -146 0
h -145 -133 0
h -145 146 0
h 147 133 146 0
h -147 -133 0
h -147 -146 0
h 148 134 -149 0
h -148 -134 0
h -148 149 0
h 150 134 149 0
h -150 -134 0
h -150 -149 0
h 151 135 -152 0
h -151 -135 0
h -151 152 0
h 153 135 152 0
h -153 -135 0
h -153 -152 0
h 154 136 -155 0
h -154 -136 0
h -154 155 0
h 156 136 155 0
h -156 -136 0
h -156 -155 0
h 157 137 -158 0
h -157 -137 0
h -157 158 0
h 159 137 158 0
h -159 -137 0
h -159 -158 0
h 160 138 -161 0
h -160 -138 0
h -160 161 0
h 162 138 161 0
h -162 -138 0
h -162 -161 0
h 163 139 -164 0
h -163 -139 0
h -163 164 0
h 165 139 164 0
h -165 -139 0
h -165 -164 0
h 166 140 -167 0
h -166 -140 0
h -166 167 0
h 168 140 167 0
h -168 -140 0
h -168 -167 0
h 169 141 -170 0
h -169 -141 0
h -169 170 0
h 171 141 170 0
h -171 -141 0
h -171 -170 0
h 172 142 -173 0
h -172 -142 0
h -172 173 0
h 174 142 173 0
h -174 -142 0
h -174 -173 0
h 175 143 -176 0
h -175 -143 0
h -175 176 0
h 177 143 176 0
h -177 -143 0
h -177 -176 0
h 178 144 -179 0
h -178 -144 0
h -178 179 0
h 180 144 179 0
h -180 -144 0
h -180 -179 0
h 145 150 151 154 159 160 0
h 145 150 151 154 159 162 0
h 145 150 151 154 157 162 0
h 145 150 151 154 157 160 0
h 145 148 151 156 159 162 0
h 147 148 151 154 159 162 0
h 145 148 153 154 159 162 0
h 163 168 169 172 177 178 0
h 163 168 169 172 177 180 0
h 163 168 169 172 175 180 0
h 163 168 169 172 175 178 0
h 163 166 169 174 177 180 0
h 165 166 169 172 177 180 0
h 163 166 171 172 177 180 0
h 181 145 148 151 156 159 160 0
h -181 -145 0
h -181 -148 0
h -181 -151 0
h -181 -156 0
h -181 -159 0
h -181 -160 0
h 182 147 148 151 154 157 162 0
h -182 -147 0
h -182 -148 0
h -182 -151 0
h -182 -154 0
h -182 -157 0
h -182 -162 0
h 183 145 148 153 154 159 160 0
h -183 -145 0
h -183 -148 0
h -183 -153 0
h -183 -154 0
h -183 -159 0
h -183 -160 0
h 184 145 148 153 154 157 160 0
h -184 -145 0
h -184 -148 0
h -184 -153 0
h -184 -154 0
h -184 -157 0
h -184 -160 0
h 185 145 148 153 154 157 162 0
h -185 -145 0
h -185 -148 0
h -185 -153 0
h -185 -154 0
h -185 -157 0
h -185 -162 0
h 186 147 148 151 154 157 160 0
h -186 -147 0
h -186 -148 0
h -186 -151 0
h -186 -154 0
h -186 -157 0
h -186 -160 0
h 187 147 148 151 154 159 160 0
h -187 -147 0
h -187 -148 0
h -187 -151 0
h -187 -154 0
h -187 -159 0
h -187 -160 0
h 188 163 166 169 174 177 178 0
h -188 -163 0
h -188 -166 0
h -188 -169 0
h -188 -174 0
h -188 -177 0
h -188 -178 0
h 189 165 166 169 172 175 180 0
h -189 -165 0
h -189 -166 0
h -189 -169 0
h -189 -172 0
h -189 -175 0
h -189 -180 0
h 190 163 166 171 172 177 178 0
h -190 -163 0
h -190 -166 0
h -190 -171 0
h -190 -172 0
h -190 -177 0
h -190 -178 0
h 191 163 166 171 172 175 178 0
h -191 -163 0
h -191 -166 0
h -191 -171 0
h -191 -172 0
h -191 -175 0
h -191 -178 0
h 192 163 166 171 172 175 180 0
h -192 -163 0
h -192 -166 0
h -192 -171 0
h -192 -172 0
h -192 -175 0
h -192 -180 0
h 193 165 166 169 172 175 178 0
h -193 -165 0
h -193 -166 0
h -193 -169 0
h -193 -172 0
h -193 -175 0
h -193 -178 0
h 194 165 166 169 172 177 178 0
h -194 -165 0
h -194 -166 0
h -194 -169 0
h -194 -172 0
h -194 -177 0
h -194 -178 0
h 195 0
h -196 0
h 197 0
h -199 133 0
h -199 -139 0
h 199 -133 139 0
h -200 -133 0
h -200 139 0
h 200 133 -139 0
h -201 147 0
h -201 163 0
h 201 -147 -163 0
h -202 145 0
h -202 165 0
h 202 -145 -165 0
h 198 -195 199 200 201 202 0
h 195 -198 0
h -199 -198 0
h -200 -198 0
h -201 -198 0
h -202 -198 0
h -204 195 0
h -204 -133 0
h -204 139 0
h 204 -195 133 -139 0
h -205 195 0
h -205 147 0
h -205 163 0
h 205 -195 -147 -163 0
h -203 196 204 205 0
h -196 203 0
h -204 203 0
h -205 203 0
h -207 134 0
h -207 -140 0
h 207 -134 140 0
h -208 -134 0
h -208 140 0
h 208 134 -140 0
h -209 150 0
h -209 166 0
h 209 -150 -166 0
h -210 148 0
h -210 168 0
h 210 -148 -168 0
h 206 -198 207 208 209 210 0
h 198 -206 0
h -207 -206 0
h -208 -206 0
h -209 -206 0
h -210 -206 0
h -212 198 0
h -212 -134 0
h -212 140 0
h 212 -198 134 -140 0
h -213 198 0
h -213 150 0
h -213 166 0
h 213 -198 -150 -166 0
h -211 203 212 213 0
h -203 211 0
h -212 211 0
h -213 211 0
h -215 135 0
h -215 -141 0
h 215 -135 141 0
h -216 -135 0
h -216 141 0
h 216 135 -141 0
h -217 153 0
h -217 169 0
h 217 -153 -169 0
h -218 151 0
h -218 171 0
h 218 -151 -171 0
h 214 -206 215 216 217 218 0
h 206 -214 0
h -215 -214 0
h -216 -214 0
h -217 -214 0
h -218 -214 0
h -220 206 0
h -220 -135 0
h -220 141 0
h 220 -206 135 -141 0
h -221 206 0
h -221 153 0
h -221 169 0
h 221 -206 -153 -169 0
h -219 211 220 221 0
h -211 219 0
h -220 219 0
h -221 219 0
h -223 136 0
h -223 -142 0
h 223 -136 142 0
h -224 -136 0
h -224 142 0
h 224 136 -142 0
h -225 156 0
h -225 172 0
h 225 -156 -172 0
h -226 154 0
h -226 174 0
h 226 -154 -174 0
h 222 -214 223 224 225 226 0
h 214 -222 0
h -223 -222 0
h -224 -222 0
h -225 -222 0
h -226 -222 0
h -228 214 0
h -228 -136 0
h -228 142 0
h 228 -214 136 -142 0
h -229 214 0
h -229 156 0
h -229 172 0
h 229 -214 -156 -172 0
h -227 219 228 229 0
h -219 227 0
h -228 227 0
h -229 227 0
h -231 137 0
h -231 -143 0
h 231 -137 143 0
h -232 -137 0
h -232 143 0
h 232 137 -143 0
h -233 159 0
h -233 175 0
h 233 -159 -175 0
h -234 157 0
h -234 177 0
h 234 -157 -177 0
h 230 -222 231 232 233 234 0
h 222 -230 0
h -231 -230 0
h -232 -230 0
h -233 -230 0
h -234 -230 0
h -236 222 0
h -236 -137 0
h -236 143 0
h 236 -222 137 -143 0
h -237 222 0
h -237 159 0
h -237 175 0
h 237 -222 -159 -175 0
h -235 227 236 237 0
h -227 235 0
h -236 235 0
h -237 235 0
h -239 138 0
h -239 -144 0
h 239 -138 144 0
h -240 -138 0
h -240 144 0
h 240 138 -144 0
h -241 162 0
h -241 178 0
h 241 -162 -178 0
h -242 160 0
h -242 180 0
h 242 -160 -180 0
h 238 -230 239 240 241 242 0
h 230 -238 0
h -239 -238 0
h -240 -238 0
h -241 -238 0
h -242 -238 0
h -243 230 0
h -243 -138 0
h -243 144 0
h 243 -230 138 -144 0
h -244 230 0
h -244 162 0
h -244 178 0
h 244 -230 -162 -178 0
h -197 235 243 244 0
h -235 197 0
h -243 197 0
h -244 197 0
h 181 188 0
h 182 189 0
h 183 190 0
h 184 191 0
h 185 192 0
h 186 193 0
h 187 194 0
h -145 245 0
h -148 245 0
h -145 -148 246 0
h -151 247 0
h -154 247 0
h -151 -154 248 0
h -245 249 0
h -247 249 0
h -245 -247 250 0
h -246 251 0
h -248 251 0
h -246 -248 252 0
h -250 253 0
h -251 253 0
h -250 -251 254 0
h -253 0
h -163 255 0
h -166 255 0
h -163 -166 256 0
h -169 257 0
h -172 257 0
h -169 -172 258 0
h -255 259 0
h -257 259 0
h -255 -257 260 0
h -256 261 0
h -258 261 0
h -256 -258 262 0
h -260 263 0
h -261 263 0
h -260 -261 264 0
h -263 0
